Gurobi Optimizer version 10.0.3 build v10.0.3rc0 (win64)

CPU model: 13th Gen Intel(R) Core(TM) i7-13700T, instruction set [SSE2|AVX|AVX2]
Thread count: 16 physical cores, 24 logical processors, using up to 24 threads

Optimize a model with 4985745 rows, 641269 columns and 10240685 nonzeros
Model fingerprint: 0x5aba3066
Variable types: 0 continuous, 641269 integer (69360 binary)
Coefficient statistics:
  Matrix range     [1e+00, 6e+02]
  Objective range  [7e+00, 3e+02]
  Bounds range     [1e+00, 1e+00]
  RHS range        [1e+00, 6e+02]
Presolve removed 165410 rows and 498276 columns (presolve time = 5s) ...
Presolve removed 165410 rows and 498276 columns (presolve time = 10s) ...
Presolve removed 165410 rows and 498276 columns (presolve time = 15s) ...
Presolve removed 725261 rows and 514986 columns (presolve time = 20s) ...
Presolve removed 725293 rows and 515007 columns (presolve time = 25s) ...
Presolve removed 725293 rows and 515007 columns (presolve time = 30s) ...
Presolve removed 725293 rows and 515007 columns (presolve time = 35s) ...
Presolve removed 725293 rows and 515007 columns (presolve time = 40s) ...
Presolve removed 725293 rows and 515007 columns (presolve time = 45s) ...
Presolve removed 725293 rows and 515007 columns (presolve time = 50s) ...
Presolve removed 725293 rows and 515007 columns (presolve time = 55s) ...
Presolve removed 725293 rows and 515007 columns (presolve time = 60s) ...
Presolve removed 725293 rows and 515007 columns (presolve time = 65s) ...
Presolve removed 725293 rows and 515007 columns (presolve time = 70s) ...
Presolve removed 725293 rows and 515007 columns (presolve time = 75s) ...
Presolve removed 725293 rows and 515007 columns (presolve time = 80s) ...
Presolve removed 725293 rows and 527372 columns (presolve time = 85s) ...
Presolve removed 898580 rows and 527372 columns (presolve time = 92s) ...
Presolve removed 898580 rows and 527372 columns (presolve time = 95s) ...
Presolve removed 1280315 rows and 527372 columns (presolve time = 100s) ...
Presolve removed 1280315 rows and 527376 columns (presolve time = 106s) ...
Presolve removed 1284626 rows and 531687 columns (presolve time = 110s) ...
Presolve removed 1284664 rows and 531708 columns (presolve time = 115s) ...
Presolve removed 1284664 rows and 531708 columns (presolve time = 120s) ...
Presolve removed 1284729 rows and 531708 columns (presolve time = 125s) ...
Presolve removed 1284729 rows and 531708 columns (presolve time = 131s) ...
Presolve removed 1284729 rows and 531708 columns (presolve time = 135s) ...
Presolve removed 1284729 rows and 531708 columns (presolve time = 141s) ...
Presolve removed 1284729 rows and 531708 columns (presolve time = 145s) ...
Presolve removed 1284729 rows and 531708 columns (presolve time = 150s) ...
Presolve removed 1284729 rows and 531708 columns (presolve time = 155s) ...
Presolve removed 1284729 rows and 531708 columns (presolve time = 160s) ...
Presolve removed 1284729 rows and 531708 columns (presolve time = 166s) ...
Presolve removed 1284729 rows and 531708 columns (presolve time = 171s) ...
Presolve removed 1284729 rows and 531708 columns (presolve time = 176s) ...
Presolve removed 1297683 rows and 531708 columns (presolve time = 180s) ...
Presolve removed 1297683 rows and 531708 columns (presolve time = 189s) ...
Presolve removed 1297683 rows and 531708 columns (presolve time = 193s) ...
Presolve removed 1297683 rows and 531708 columns (presolve time = 196s) ...
Presolve removed 1573991 rows and 531708 columns (presolve time = 204s) ...
Presolve removed 1573991 rows and 531708 columns (presolve time = 208s) ...
Presolve removed 1573991 rows and 531711 columns (presolve time = 210s) ...
Presolve removed 1573991 rows and 531711 columns (presolve time = 215s) ...
Presolve removed 1573991 rows and 531711 columns (presolve time = 220s) ...
Presolve removed 1573991 rows and 531711 columns (presolve time = 225s) ...
Presolve removed 1573991 rows and 531711 columns (presolve time = 237s) ...
Presolve removed 1582280 rows and 540000 columns (presolve time = 242s) ...
Presolve removed 1589933 rows and 547653 columns (presolve time = 250s) ...
Presolve removed 1589933 rows and 547653 columns (presolve time = 255s) ...
Presolve removed 1589933 rows and 547653 columns (presolve time = 256s) ...
Presolve removed 1593823 rows and 547653 columns (presolve time = 260s) ...
Presolve removed 1593823 rows and 547653 columns (presolve time = 265s) ...
Presolve removed 1593823 rows and 547653 columns (presolve time = 271s) ...
Presolve removed 1593823 rows and 547653 columns (presolve time = 275s) ...
Presolve removed 1593823 rows and 547653 columns (presolve time = 281s) ...
Presolve removed 1593823 rows and 547653 columns (presolve time = 286s) ...
Presolve removed 1593823 rows and 547653 columns (presolve time = 291s) ...
Presolve removed 1593823 rows and 547653 columns (presolve time = 296s) ...
Presolve removed 1593823 rows and 547653 columns (presolve time = 300s) ...
Presolve removed 1593823 rows and 547653 columns (presolve time = 305s) ...
Presolve removed 1593823 rows and 547653 columns (presolve time = 310s) ...
Presolve removed 1593823 rows and 547653 columns (presolve time = 315s) ...
Presolve removed 1595187 rows and 547653 columns (presolve time = 320s) ...
Presolve removed 1595187 rows and 547653 columns (presolve time = 325s) ...
Presolve removed 1595331 rows and 547653 columns (presolve time = 330s) ...
Presolve removed 1595381 rows and 547653 columns (presolve time = 335s) ...
Presolve removed 1595381 rows and 547653 columns (presolve time = 340s) ...
Presolve removed 1595381 rows and 547653 columns (presolve time = 345s) ...
Presolve removed 1595381 rows and 547653 columns (presolve time = 350s) ...
Presolve removed 1595381 rows and 547653 columns (presolve time = 355s) ...
Presolve removed 1595381 rows and 547653 columns (presolve time = 360s) ...
Presolve removed 1595381 rows and 547653 columns (presolve time = 365s) ...
Presolve removed 1596207 rows and 547653 columns (presolve time = 371s) ...
Presolve removed 1691716 rows and 547653 columns (presolve time = 377s) ...
Presolve removed 1694825 rows and 547653 columns (presolve time = 381s) ...
Presolve removed 1699390 rows and 547653 columns (presolve time = 387s) ...
Presolve removed 1705289 rows and 547653 columns (presolve time = 395s) ...
Presolve removed 1712057 rows and 547653 columns (presolve time = 404s) ...
Presolve removed 1719565 rows and 547653 columns (presolve time = 415s) ...
Presolve removed 1727456 rows and 547653 columns (presolve time = 426s) ...
Presolve removed 1735092 rows and 547653 columns (presolve time = 437s) ...
Presolve removed 1742868 rows and 547653 columns (presolve time = 444s) ...
Presolve removed 1766854 rows and 547653 columns (presolve time = 445s) ...
Presolve removed 1793348 rows and 547653 columns (presolve time = 457s) ...
Presolve removed 1800132 rows and 547653 columns (presolve time = 477s) ...
Presolve removed 1807387 rows and 547653 columns (presolve time = 499s) ...
Presolve removed 1818918 rows and 547653 columns (presolve time = 535s) ...
Presolve removed 1844651 rows and 547653 columns (presolve time = 613s) ...
Presolve removed 1856513 rows and 547653 columns (presolve time = 648s) ...
Presolve removed 1856513 rows and 548337 columns (presolve time = 651s) ...
Presolve removed 1860807 rows and 548337 columns (presolve time = 659s) ...
Presolve removed 1860807 rows and 548337 columns (presolve time = 663s) ...
Presolve removed 1860807 rows and 548337 columns (presolve time = 665s) ...
Presolve removed 2139747 rows and 548338 columns (presolve time = 673s) ...
Presolve removed 2139747 rows and 548338 columns (presolve time = 677s) ...
Presolve removed 2139747 rows and 548340 columns (presolve time = 680s) ...
Presolve removed 2139747 rows and 548340 columns (presolve time = 685s) ...
Presolve removed 2139747 rows and 548340 columns (presolve time = 690s) ...
Presolve removed 2139747 rows and 548340 columns (presolve time = 695s) ...
Presolve removed 2139747 rows and 548340 columns (presolve time = 706s) ...
Presolve removed 2151407 rows and 560000 columns (presolve time = 711s) ...
Presolve removed 2155605 rows and 564198 columns (presolve time = 717s) ...
Presolve removed 2155605 rows and 564198 columns (presolve time = 722s) ...
Presolve removed 2159754 rows and 564198 columns (presolve time = 726s) ...
Presolve removed 2159754 rows and 564198 columns (presolve time = 730s) ...
Presolve removed 2159754 rows and 564198 columns (presolve time = 735s) ...
Presolve removed 2159754 rows and 564198 columns (presolve time = 741s) ...
Presolve removed 2159754 rows and 564198 columns (presolve time = 746s) ...
Presolve removed 2159754 rows and 564198 columns (presolve time = 751s) ...
Presolve removed 2159754 rows and 564198 columns (presolve time = 756s) ...
Presolve removed 2159754 rows and 564198 columns (presolve time = 761s) ...
Presolve removed 2159754 rows and 564198 columns (presolve time = 766s) ...
Presolve removed 2159754 rows and 564198 columns (presolve time = 771s) ...
Presolve removed 2161828 rows and 564198 columns (presolve time = 775s) ...
Presolve removed 2161828 rows and 564198 columns (presolve time = 780s) ...
Presolve removed 2161828 rows and 564198 columns (presolve time = 785s) ...
Presolve removed 2161828 rows and 564198 columns (presolve time = 790s) ...
Presolve removed 2161828 rows and 564198 columns (presolve time = 796s) ...
Presolve removed 2162739 rows and 564198 columns (presolve time = 801s) ...
Presolve removed 2163084 rows and 564198 columns (presolve time = 805s) ...
Presolve removed 2255100 rows and 564198 columns (presolve time = 823s) ...
Presolve removed 2258340 rows and 564198 columns (presolve time = 833s) ...
Presolve removed 2262931 rows and 564198 columns (presolve time = 848s) ...
Presolve removed 2268828 rows and 564198 columns (presolve time = 867s) ...
Presolve removed 2275603 rows and 564198 columns (presolve time = 890s) ...
Presolve removed 2283170 rows and 564198 columns (presolve time = 915s) ...
Presolve removed 2291055 rows and 564198 columns (presolve time = 943s) ...
Presolve removed 2298523 rows and 564198 columns (presolve time = 968s) ...
Presolve removed 2306551 rows and 564198 columns (presolve time = 993s) ...
Presolve removed 2314614 rows and 564198 columns (presolve time = 1018s) ...
Presolve removed 2322547 rows and 564198 columns (presolve time = 1044s) ...
Presolve removed 2330660 rows and 564198 columns (presolve time = 1071s) ...
Presolve removed 2339409 rows and 564198 columns (presolve time = 1097s) ...
Presolve removed 2405827 rows and 564198 columns (presolve time = 1126s) ...
Presolve removed 2421786 rows and 564198 columns (presolve time = 1179s) ...
Presolve removed 2421786 rows and 564888 columns (presolve time = 1181s) ...
Presolve removed 2424213 rows and 564903 columns (presolve time = 1185s) ...
Presolve removed 2425006 rows and 564903 columns (presolve time = 1191s) ...
Presolve removed 2425006 rows and 564903 columns (presolve time = 1197s) ...
Presolve removed 2704022 rows and 564903 columns (presolve time = 1205s) ...
Presolve removed 2704022 rows and 564903 columns (presolve time = 1210s) ...
Presolve removed 2704022 rows and 564903 columns (presolve time = 1215s) ...
Presolve removed 2704022 rows and 564903 columns (presolve time = 1220s) ...
Presolve removed 2704022 rows and 564903 columns (presolve time = 1225s) ...
Presolve removed 2704022 rows and 564903 columns (presolve time = 1242s) ...
Presolve removed 2719119 rows and 580000 columns (presolve time = 1246s) ...
Presolve removed 2719793 rows and 580674 columns (presolve time = 1253s) ...
Presolve removed 2725074 rows and 580674 columns (presolve time = 1257s) ...
Presolve removed 2725074 rows and 580674 columns (presolve time = 1260s) ...
Presolve removed 2725074 rows and 580674 columns (presolve time = 1265s) ...
Presolve removed 2725074 rows and 580674 columns (presolve time = 1270s) ...
Presolve removed 2725074 rows and 580674 columns (presolve time = 1275s) ...
Presolve removed 2725074 rows and 580674 columns (presolve time = 1281s) ...
Presolve removed 2727275 rows and 580674 columns (presolve time = 1285s) ...
Presolve removed 2727275 rows and 580674 columns (presolve time = 1290s) ...
Presolve removed 2727281 rows and 580674 columns (presolve time = 1295s) ...
Presolve removed 2727645 rows and 580674 columns (presolve time = 1301s) ...
Presolve removed 2727645 rows and 580674 columns (presolve time = 1305s) ...
Presolve removed 2727645 rows and 580674 columns (presolve time = 1310s) ...
Presolve removed 2727645 rows and 580674 columns (presolve time = 1315s) ...
Presolve removed 2727645 rows and 580674 columns (presolve time = 1320s) ...
Presolve removed 2727645 rows and 580674 columns (presolve time = 1325s) ...
Presolve removed 2727645 rows and 580674 columns (presolve time = 1330s) ...
Presolve removed 2727645 rows and 580674 columns (presolve time = 1336s) ...
Presolve removed 2729501 rows and 580674 columns (presolve time = 1340s) ...
Presolve removed 2818029 rows and 580674 columns (presolve time = 1346s) ...
Presolve removed 2854282 rows and 580674 columns (presolve time = 1351s) ...
Presolve removed 2893933 rows and 580674 columns (presolve time = 1355s) ...
Presolve removed 2965179 rows and 580674 columns (presolve time = 1361s) ...
Presolve removed 2988309 rows and 581402 columns (presolve time = 1365s) ...
Presolve removed 3267824 rows and 581402 columns (presolve time = 1371s) ...
Presolve removed 3267824 rows and 581402 columns (presolve time = 1375s) ...
Presolve removed 3267824 rows and 581402 columns (presolve time = 1380s) ...
Presolve removed 3283509 rows and 597087 columns (presolve time = 1386s) ...
Presolve removed 3289836 rows and 597087 columns (presolve time = 1390s) ...
Presolve removed 3289836 rows and 597087 columns (presolve time = 1395s) ...
Presolve removed 3289836 rows and 597087 columns (presolve time = 1400s) ...
Presolve removed 3289836 rows and 597087 columns (presolve time = 1405s) ...
Presolve removed 3289836 rows and 597087 columns (presolve time = 1410s) ...
Presolve removed 3292556 rows and 597087 columns (presolve time = 1415s) ...
Presolve removed 3293060 rows and 597087 columns (presolve time = 1420s) ...
Presolve removed 3442097 rows and 597087 columns (presolve time = 1425s) ...
Presolve removed 3475802 rows and 597087 columns (presolve time = 1435s) ...
Presolve removed 3484570 rows and 597087 columns (presolve time = 1445s) ...
Presolve removed 3491556 rows and 597087 columns (presolve time = 1452s) ...
Presolve removed 3498749 rows and 597087 columns (presolve time = 1461s) ...
Presolve removed 3511114 rows and 597087 columns (presolve time = 1475s) ...
Presolve removed 3529113 rows and 597087 columns (presolve time = 1495s) ...
Presolve removed 3549800 rows and 597087 columns (presolve time = 1518s) ...
Presolve removed 3551303 rows and 597833 columns (presolve time = 1520s) ...
Presolve removed 3832089 rows and 597833 columns (presolve time = 1525s) ...
Presolve removed 3832089 rows and 597833 columns (presolve time = 1530s) ...
Presolve removed 3832089 rows and 597833 columns (presolve time = 1536s) ...
Presolve removed 3847700 rows and 613444 columns (presolve time = 1540s) ...
Presolve removed 3854639 rows and 613444 columns (presolve time = 1545s) ...
Presolve removed 3854639 rows and 613444 columns (presolve time = 1550s) ...
Presolve removed 3854639 rows and 613444 columns (presolve time = 1555s) ...
Presolve removed 3854639 rows and 613444 columns (presolve time = 1560s) ...
Presolve removed 3854639 rows and 613444 columns (presolve time = 1565s) ...
Presolve removed 3856913 rows and 613444 columns (presolve time = 1570s) ...
Presolve removed 3858413 rows and 613444 columns (presolve time = 1575s) ...
Presolve removed 3858413 rows and 613444 columns (presolve time = 1580s) ...
Presolve removed 3946061 rows and 613444 columns (presolve time = 1591s) ...
Presolve removed 3949458 rows and 613444 columns (presolve time = 1595s) ...
Presolve removed 3954241 rows and 613444 columns (presolve time = 1602s) ...
Presolve removed 3960136 rows and 613444 columns (presolve time = 1610s) ...
Presolve removed 3966873 rows and 613444 columns (presolve time = 1620s) ...
Presolve removed 3974535 rows and 613444 columns (presolve time = 1630s) ...
Presolve removed 3982421 rows and 613444 columns (presolve time = 1642s) ...
Presolve removed 3989549 rows and 613444 columns (presolve time = 1652s) ...
Presolve removed 3997874 rows and 613444 columns (presolve time = 1663s) ...
Presolve removed 4005796 rows and 613444 columns (presolve time = 1675s) ...
Presolve removed 4013607 rows and 613444 columns (presolve time = 1686s) ...
Presolve removed 4022086 rows and 613444 columns (presolve time = 1698s) ...
Presolve removed 4030924 rows and 613444 columns (presolve time = 1711s) ...
Presolve removed 4039574 rows and 613444 columns (presolve time = 1724s) ...
Presolve removed 4048272 rows and 613444 columns (presolve time = 1737s) ...
Presolve removed 4055442 rows and 613444 columns (presolve time = 1744s) ...
Presolve removed 4075188 rows and 613444 columns (presolve time = 1745s) ...
Presolve removed 4396029 rows and 614209 columns (presolve time = 1750s) ...
Presolve removed 4396029 rows and 614209 columns (presolve time = 1755s) ...
Presolve removed 4396029 rows and 614209 columns (presolve time = 1760s) ...
Presolve removed 4411535 rows and 629715 columns (presolve time = 1766s) ...
Presolve removed 4418801 rows and 629715 columns (presolve time = 1770s) ...
Presolve removed 4418801 rows and 629715 columns (presolve time = 1775s) ...
Presolve removed 4418801 rows and 629715 columns (presolve time = 1780s) ...
Presolve removed 4422437 rows and 629715 columns (presolve time = 1785s) ...
Presolve removed 4505295 rows and 629715 columns (presolve time = 1790s) ...
Presolve removed 4510030 rows and 629715 columns (presolve time = 1797s) ...
Presolve removed 4513443 rows and 629715 columns (presolve time = 1802s) ...
Presolve removed 4518231 rows and 629715 columns (presolve time = 1809s) ...
Presolve removed 4524130 rows and 629715 columns (presolve time = 1818s) ...
Presolve removed 4530862 rows and 629715 columns (presolve time = 1828s) ...
Presolve removed 4538526 rows and 629715 columns (presolve time = 1840s) ...
Presolve removed 4546386 rows and 629715 columns (presolve time = 1852s) ...
Presolve removed 4553553 rows and 629715 columns (presolve time = 1863s) ...
Presolve removed 4561815 rows and 629715 columns (presolve time = 1875s) ...
Presolve removed 4569760 rows and 629715 columns (presolve time = 1888s) ...
Presolve removed 4577545 rows and 629715 columns (presolve time = 1900s) ...
Presolve removed 4585959 rows and 629715 columns (presolve time = 1913s) ...
Presolve removed 4594833 rows and 629715 columns (presolve time = 1927s) ...
Presolve removed 4603392 rows and 629715 columns (presolve time = 1941s) ...
Presolve removed 4611951 rows and 629715 columns (presolve time = 1954s) ...
Presolve removed 4619349 rows and 629715 columns (presolve time = 1966s) ...
Presolve removed 4626450 rows and 629715 columns (presolve time = 1977s) ...
Presolve removed 4639083 rows and 629715 columns (presolve time = 1997s) ...
Presolve removed 4658415 rows and 629715 columns (presolve time = 2028s) ...
Presolve removed 4676427 rows and 629715 columns (presolve time = 2056s) ...
Presolve removed 4834390 rows and 630504 columns (presolve time = 2060s) ...
Presolve removed 4834390 rows and 630504 columns (presolve time = 2065s) ...
Presolve removed 4934329 rows and 638588 columns (presolve time = 2070s) ...
Presolve removed 4976774 rows and 638968 columns (presolve time = 2091s) ...
Presolve removed 4983184 rows and 639911 columns (presolve time = 2095s) ...
Presolve removed 4983184 rows and 639915 columns
Presolve time: 2095.92s
Presolved: 2561 rows, 1354 columns, 6486 nonzeros
Variable types: 0 continuous, 1354 integer (490 binary)
Found heuristic solution: objective 32665.290000
Found heuristic solution: objective 39634.340000

Root simplex log...

Iteration    Objective       Primal Inf.    Dual Inf.      Time
       0    8.4832280e+04   8.816250e+02   0.000000e+00   2097s
    1238    7.6114908e+04   0.000000e+00   0.000000e+00   2097s

Root relaxation: objective 7.611491e+04, 1238 iterations, 0.02 seconds (0.01 work units)

    Nodes    |    Current Node    |     Objective Bounds      |     Work
 Expl Unexpl |  Obj  Depth IntInf | Incumbent    BestBd   Gap | It/Node Time

     0     0 76114.9076    0  134 39634.3400 76114.9076  92.0%     - 2097s
H    0     0                    68343.040000 76114.9076  11.4%     - 2097s
H    0     0                    70948.140000 76114.9076  7.28%     - 2097s
H    0     0                    75632.780000 76114.9076  0.64%     - 2097s
H    0     0                    75639.280000 76114.9076  0.63%     - 2097s
     0     0 75973.0357    0   19 75639.2800 75973.0357  0.44%     - 2097s
     0     0 75973.0357    0   19 75639.2800 75973.0357  0.44%     - 2097s
H    0     0                    75691.190000 75973.0357  0.37%     - 2097s
H    0     0                    75766.590000 75973.0357  0.27%     - 2097s
H    0     0                    75804.290000 75973.0357  0.22%     - 2097s
     0     0 75893.9993    0   87 75804.2900 75893.9993  0.12%     - 2097s
H    0     0                    75814.290000 75893.9993  0.11%     - 2099s
     0     0 75893.9993    0   11 75814.2900 75893.9993  0.11%     - 2099s
     0     0 75857.2839    0   44 75814.2900 75857.2839  0.06%     - 2099s
     0     0 75814.2900    0   51 75814.2900 75814.2900  0.00%     - 2099s

Cutting planes:
  Gomory: 1
  MIR: 1
  RLT: 1

Explored 1 nodes (1902 simplex iterations) in 2100.10 seconds (80.86 work units)
Thread count was 24 (of 24 available processors)

Solution count 10: 75814.3 75804.3 75766.6 ... 32665.3

Optimal solution found (tolerance 1.00e-04)
Best objective 7.581429000000e+04, best bound 7.581429000000e+04, gap 0.0000%
Valor da função objetivo:  75814.29000000001

Tempo para criar o modelo:  171.5996561050415
